c Sudoku solution
p cnf 729 0
165 0
192 0
223 0
247 0
294 0
315 0
349 0
356 0
362 0
388 0
391 0
373 0
478 0
495 0
529 0
533 0
558 0
545 0
251 0
268 0
631 0
625 0
618 0
683 0
784 0
793 0
871 0
943 0
813 0
144 0
153 0
463 0
955 0
964 0
979 0
699 0
459 0
654 0
574 0
414 0
327 0
334 0
824 0
752 0
857 0
882 0
775 0
835 0
717 0
739 0
869 0
437 0
672 0
512 0
426 0
442 0
561 0
646 0
667 0
481 0
232 0
922 0
911 0
121 0
138 0
728 0
936 0
848 0
896 0
987 0
998 0
741 0
766 0
276 0
285 0
177 0
189 0
116 0
219 0
586 0
597 0
